Gurobi Optimizer version 9.1.2 build v9.1.2rc0 (linux64)
Thread count: 36 physical cores, 72 logical processors, using up to 32 threads
Optimize a model with 12 rows, 57 columns and 590 nonzeros
Model fingerprint: 0xf32eec78
Model has 47 quadratic constraints
Coefficient statistics:
  Matrix range     [2e-05, 3e+00]
  QMatrix range    [1e+00, 1e+00]
  QLMatrix range   [1e+00, 1e+00]
  Objective range  [8e-03, 7e-01]
  Bounds range     [1e+00, 1e+00]
  RHS range        [1e+00, 1e+00]
Presolve removed 9 rows and 0 columns

Continuous model is non-convex -- solving as a MIP.

Presolve removed 9 rows and 0 columns
Presolve time: 0.00s
Presolved: 189 rows, 57 columns, 443 nonzeros
Presolved model has 47 bilinear constraint(s)
Variable types: 57 continuous, 0 integer (0 binary)

Root relaxation: objective -1.743721e+00, 44 iterations, 0.00 seconds

    Nodes    |    Current Node    |     Objective Bounds      |     Work
 Expl Unexpl |  Obj  Depth IntInf | Incumbent    BestBd   Gap | It/Node Time

     0     0   -1.74372    0   38          -   -1.74372      -     -    0s
H    0     0                       0.6147548   -1.74372   384%     -    0s
     0     0   -1.64739    0    1    0.61475   -1.64739   368%     -    0s
H    0     0                      -1.6450460   -1.64739  0.14%     -    0s
     0     0     cutoff    0        -1.64505   -1.64505  0.00%     -    0s

Cutting planes:
  RLT: 25
  BQP: 3

Explored 1 nodes (76 simplex iterations) in 0.01 seconds
Thread count was 32 (of 72 available processors)

Solution count 2: -1.64505 0.614755 
No other solutions better than -1.64505

Optimal solution found (tolerance 1.00e-04)
Best objective -1.645045978473e+00, best bound -1.645045978473e+00, gap 0.0000%

User-callback calls 78, time in user-callback 0.00 sec
Gurobi Optimizer version 9.1.2 build v9.1.2rc0 (linux64)
Thread count: 36 physical cores, 72 logical processors, using up to 32 threads
Optimize a model with 24 rows, 120 columns and 2480 nonzeros
Model fingerprint: 0xff247f2b
Model has 100 quadratic constraints
Coefficient statistics:
  Matrix range     [8e-06, 4e+00]
  QMatrix range    [1e+00, 1e+00]
  QLMatrix range   [1e+00, 1e+00]
  Objective range  [7e-03, 1e+00]
  Bounds range     [1e+00, 1e+00]
  RHS range        [1e+00, 1e+00]
Presolve removed 17 rows and 0 columns

Continuous model is non-convex -- solving as a MIP.

Presolve removed 17 rows and 0 columns
Presolve time: 0.00s
Presolved: 407 rows, 120 columns, 1232 nonzeros
Presolved model has 100 bilinear constraint(s)
Variable types: 120 continuous, 0 integer (0 binary)

Root relaxation: objective -9.855998e+00, 122 iterations, 0.00 seconds

    Nodes    |    Current Node    |     Objective Bounds      |     Work
 Expl Unexpl |  Obj  Depth IntInf | Incumbent    BestBd   Gap | It/Node Time

     0     0   -9.85600    0  100          -   -9.85600      -     -    0s
H    0     0                       0.9298974   -9.85600  1160%     -    0s
     0     0   -6.87424    0   90    0.92990   -6.87424   839%     -    0s
H    0     0                      -0.0157567   -6.87424      -     -    0s
     0     0   -6.13888    0   90   -0.01576   -6.13888      -     -    0s
H    0     0                      -0.3987530   -6.13888  1440%     -    0s
     0     0   -6.08399    0  100   -0.39875   -6.08399  1426%     -    0s
     0     0   -5.85525    0  100   -0.39875   -5.85525  1368%     -    0s
H    0     0                      -0.4528397   -5.85525  1193%     -    0s
     0     0   -5.78640    0  100   -0.45284   -5.78640  1178%     -    0s
     0     0   -5.75303    0   90   -0.45284   -5.75303  1170%     -    0s
H    0     0                      -0.4982957   -5.75303  1055%     -    0s
     0     0   -5.75150    0  100   -0.49830   -5.75150  1054%     -    0s
     0     0   -5.72990    0  100   -0.49830   -5.72990  1050%     -    0s
     0     0   -5.72247    0   90   -0.49830   -5.72247  1048%     -    0s
     0     0   -5.70922    0  100   -0.49830   -5.70922  1046%     -    0s
H    0     0                      -0.5098039   -5.70922  1020%     -    0s
     0     0   -5.70837    0  100   -0.50980   -5.70837  1020%     -    0s
     0     0   -5.70624    0  100   -0.50980   -5.70624  1019%     -    0s
H    0     0                      -0.5357472   -5.70624   965%     -    0s
     0     0   -5.70604    0  100   -0.53575   -5.70604   965%     -    0s
     0     0   -5.70514    0  100   -0.53575   -5.70514   965%     -    0s
H    0     0                      -1.6847782   -5.70514   239%     -    0s
H    0     0                      -3.1340481   -5.70514  82.0%     -    0s
H    0     0                      -3.1880043   -5.70514  79.0%     -    0s
     0     2   -5.70514    0  100   -3.18800   -5.70514  79.0%     -    0s
*  840   790              28      -3.4772983   -5.00998  44.1%  30.3    0s
*  903   929              35      -3.7916653   -5.00998  32.1%  29.3    0s
* 1291  1167              25      -4.1849852   -4.97651  18.9%  25.9    0s
* 1929  1381              29      -4.2677556   -4.86665  14.0%  23.2    0s
* 2235  1642              39      -4.6198961   -4.79368  3.76%  22.4    0s
* 2236  1642              39      -4.6198961   -4.79368  3.76%  22.4    0s
* 2940  1260              22      -4.6202856   -4.62499  0.10%  18.7    0s
* 2942  1260              23      -4.6203161   -4.62499  0.10%  18.7    0s
* 2944  1260              24      -4.6203162   -4.62499  0.10%  18.7    0s
* 3174   970              19      -4.6210907   -4.62499  0.08%  17.5    0s
* 3177   970              21      -4.6212192   -4.62499  0.08%  17.5    0s
* 3180   970              22      -4.6212314   -4.62499  0.08%  17.5    0s
* 3182   970              21      -4.6212370   -4.62499  0.08%  17.5    0s
* 3188   970              19      -4.6216984   -4.62499  0.07%  17.5    0s

Cutting planes:
  RLT: 83
  BQP: 13
  PSD: 14

Explored 3802 nodes (57745 simplex iterations) in 0.83 seconds
Thread count was 32 (of 72 available processors)

Solution count 10: -4.6217 -4.62124 -4.62123 ... -4.26776

Optimal solution found (tolerance 1.00e-04)
Best objective -4.621698371556e+00, best bound -4.621748318853e+00, gap 0.0011%

User-callback calls 7912, time in user-callback 0.00 sec



objective value: -4.621698371556185
objective bound: -4.62174831885295
x_opt: [0.0, 1.0, 1.0, 1.0, 1.0, 0.0, 0.0, 0.0, 0.2794938708247995, 1.0, 0.0, 0.2251718901566469, 1.0, 0.9999693657849286, 1.0, 0.0, 0.0, 0.0, 0.05308153899532481, 0.4949382300131734]
GUROBI solution time: 0.8259928226470947




